#3x3_2_conGames# 26 2 35 1000000000
2 2 2 2 2 2 2 2 2 2 2 2 2 2 2 2 2 2 2 2 2 2 2 2 2 2 
1 0 0 2
0 0
1 405
1 1 0 2
0 0
1 155
1 2 0 2
0 0
1 575
1 3 0 2
0 0
1 555
1 4 0 2
0 0
1 545
1 5 0 2
0 0
1 595
1 6 0 2
0 0
1 715
1 7 0 2
0 0
1 985
1 8 0 2
0 0
1 575
1 9 0 2
0 0
1 535
1 10 0 2
0 0
1 885
1 11 0 2
0 0
1 645
1 12 0 2
0 0
1 995
1 13 0 2
0 0
1 245
1 14 0 2
0 0
1 655
1 15 0 2
0 0
1 705
1 16 0 2
0 0
1 525
1 17 0 2
0 0
1 405
1 18 0 2
0 0
1 785
1 19 0 2
0 0
1 255
1 20 0 2
0 0
1 315
1 21 0 2
0 0
1 125
1 22 0 2
0 0
1 445
1 23 0 2
0 0
1 185
1 24 0 2
0 0
1 705
1 25 0 2
0 0
1 635
10 0 1 2 3 4 7 10 12 15 17 0 1024
1 0 1 1 1 0 0 0 1 1 10000
0 1 1 0 0 1 0 0 0 1 0
1 1 1 1 1 1 0 1 1 1 10000
1 1 1 0 1 1 1 1 1 1 10000
1 0 1 1 0 0 0 0 0 1 10000
1 0 1 1 1 0 0 1 0 0 10000
1 0 1 0 1 1 1 1 0 1 10000
0 0 0 1 1 1 0 0 0 1 0
1 0 0 0 0 0 0 1 0 0 0
1 0 0 1 1 1 0 0 1 0 10000
1 1 0 1 0 1 1 1 0 1 10000
0 0 1 1 1 0 0 1 1 1 0
1 0 0 0 0 0 0 0 1 1 10000
1 1 1 0 0 1 0 0 1 0 10000
0 0 1 1 1 0 0 0 0 0 10000
1 0 0 0 0 1 1 0 1 0 10000
1 0 0 1 0 1 0 1 1 0 10000
0 0 1 1 1 0 1 1 1 0 0
0 0 1 1 1 1 1 0 0 1 0
1 1 1 1 1 0 1 0 1 0 10000
0 1 0 0 0 1 0 0 0 1 10000
1 0 0 1 0 1 1 0 0 0 0
1 1 1 0 1 1 0 1 1 0 10000
1 0 0 1 0 0 1 1 1 1 10000
0 1 1 0 1 0 1 1 0 1 0
1 1 0 0 0 0 0 0 0 1 10000
1 0 0 1 0 1 1 1 1 1 10000
1 0 0 1 0 0 1 0 0 0 10000
1 1 1 0 1 1 1 0 0 0 10000
1 0 1 1 1 0 1 1 0 1 10000
0 0 0 1 0 0 1 1 0 1 10000
1 1 1 1 0 1 0 0 0 0 10000
0 1 0 0 1 1 0 1 0 1 10000
1 0 0 1 0 0 0 1 1 0 0
1 1 1 0 1 0 1 0 0 0 10000
1 0 1 0 1 1 0 1 0 0 10000
1 0 1 1 1 1 1 1 0 0 10000
0 1 0 0 1 0 1 1 0 0 0
1 0 1 0 1 0 0 1 0 1 10000
0 1 0 0 1 0 1 0 1 1 10000
1 0 0 1 1 0 1 0 1 0 10000
1 0 1 1 1 0 0 1 0 1 10000
1 1 0 1 0 0 0 1 0 1 10000
1 0 1 0 1 1 1 1 0 0 0
1 1 1 0 0 0 1 0 1 0 10000
1 0 0 0 1 0 0 0 1 0 10000
1 0 1 0 1 1 1 0 1 1 10000
1 0 0 0 0 0 1 1 0 1 10000
1 1 0 1 0 1 1 1 0 0 0
1 0 0 0 0 0 0 0 1 0 0
1 0 0 1 1 1 0 1 0 0 10000
1 1 1 0 0 1 0 0 1 1 0
1 1 0 1 0 1 1 0 1 1 10000
0 0 1 1 1 0 0 0 0 1 10000
0 1 0 0 0 0 1 0 0 1 10000
1 1 1 1 0 1 0 0 1 0 10000
0 1 0 0 0 1 1 1 1 0 10000
1 0 0 1 0 1 0 1 1 1 10000
1 1 1 1 0 1 0 0 1 1 10000
1 1 0 0 0 1 1 0 0 1 10000
1 1 1 1 0 1 1 1 1 0 0
1 1 0 0 0 0 1 1 1 0 10000
1 0 0 1 0 1 0 0 0 0 10000
0 1 0 0 0 1 0 0 0 0 0
1 1 1 0 1 1 0 1 1 1 0
0 1 1 1 0 1 1 0 0 0 10000
1 1 0 0 0 0 0 0 0 0 10000
0 1 0 0 0 1 0 1 1 1 10000
1 0 0 1 0 1 1 1 1 0 10000
1 1 1 0 1 1 0 0 0 0 10000
1 0 0 1 0 0 1 0 0 1 0
0 1 1 0 0 0 1 1 0 1 10000
1 0 1 0 0 0 0 1 0 1 0
0 1 0 0 1 1 0 1 0 0 0
0 1 0 1 0 0 0 0 1 0 10000
1 1 1 0 1 0 1 0 0 1 10000
0 0 0 1 1 0 1 1 0 1 10000
0 1 0 0 1 1 0 0 1 1 10000
1 0 0 0 1 0 0 0 0 1 10000
1 0 0 0 0 0 1 1 1 0 10000
0 0 1 0 1 0 0 0 1 0 10000
1 0 1 0 1 0 0 1 0 0 10000
0 1 0 0 1 0 1 0 1 0 0
1 0 0 1 1 0 1 0 1 1 0
1 0 1 0 1 0 0 0 1 1 10000
1 1 0 1 0 0 0 1 0 0 10000
1 1 0 0 1 1 0 0 1 0 10000
1 0 0 1 1 0 1 1 0 0 10000
1 1 0 1 1 1 0 1 1 1 0
1 1 0 1 0 0 0 0 1 1 10000
1 0 1 0 1 1 1 0 1 0 0
0 1 0 0 0 0 0 1 1 0 10000
1 0 0 1 1 1 0 1 0 1 0
1 1 0 1 0 1 0 1 1 1 10000
0 1 1 0 1 1 0 0 0 1 10000
1 1 0 1 0 1 1 0 1 0 0
1 1 0 0 0 1 0 1 1 0 10000
0 1 0 0 0 0 1 0 0 0 0
0 1 0 0 0 1 1 1 1 1 10000
0 0 0 1 0 1 0 0 0 1 10000
1 1 0 0 0 1 1 0 0 0 0
0 1 0 0 0 0 1 1 1 1 10000
1 1 0 0 0 0 1 1 1 1 10000
0 1 0 0 0 1 1 0 0 0 10000
1 0 0 1 0 1 0 0 0 1 0
1 0 0 0 1 0 0 1 1 1 10000
0 1 1 0 0 1 0 1 0 1 10000
1 1 0 0 0 0 1 0 0 0 10000
0 1 0 0 0 1 0 1 1 0 10000
0 1 0 1 0 1 1 0 1 0 10000
1 1 1 0 1 1 0 0 0 1 10000
0 0 0 1 1 1 0 1 0 1 10000
0 1 1 0 0 0 1 1 0 0 0
0 0 1 0 1 1 1 0 1 0 10000
0 1 0 1 0 0 0 0 1 1 0
0 1 1 0 0 0 1 0 1 1 10000
0 0 0 1 1 0 1 1 0 0 0
0 1 0 0 1 1 0 0 1 0 0
0 1 0 1 0 0 0 1 0 0 10000
0 0 1 0 1 0 0 0 1 1 0
0 0 0 1 1 0 1 0 1 1 10000
1 1 0 0 1 0 1 0 1 0 10000
0 0 1 0 1 0 0 1 0 0 10000
1 0 1 0 1 0 0 0 1 0 10000
0 0 1 1 1 1 1 1 0 1 10000
1 1 0 1 1 1 1 1 0 1 0
1 1 0 0 1 1 0 0 1 1 0
1 0 0 1 1 0 1 1 0 1 0
0 1 1 0 1 0 1 0 0 1 10000
1 1 0 1 0 0 0 0 1 0 10000
0 1 1 0 1 1 1 1 1 0 10000
0 1 0 0 0 0 0 1 1 1 10000
1 1 0 0 1 0 1 1 0 1 0
0 0 0 1 0 0 1 0 0 1 10000
0 1 1 0 1 1 0 0 0 0 10000
0 0 0 1 0 1 1 1 1 0 10000
1 1 0 0 0 1 0 1 1 1 10000
0 1 0 0 0 0 0 0 0 0 10000
1 1 0 0 1 0 0 1 0 0 10000
0 1 1 0 1 1 0 1 1 1 10000
1 1 1 0 0 0 0 1 1 1 0
1 1 0 0 0 1 0 0 0 0 10000
0 0 0 1 0 1 0 0 0 0 0
0 1 0 0 0 0 1 1 1 0 10000
0 1 0 0 0 1 1 0 0 1 10000
0 0 0 1 0 1 0 1 1 1 10000
0 1 1 0 0 1 0 1 0 0 0
1 1 0 0 0 0 1 0 0 1 0
1 0 1 1 0 0 0 0 1 0 10000
1 0 1 1 1 0 0 0 0 1 10000
0 1 0 1 0 1 1 0 1 1 10000
0 1 1 0 0 1 0 0 1 1 10000
0 0 0 1 1 1 0 1 0 0 0
0 0 0 0 0 0 0 0 1 0 10000
0 1 0 1 0 1 1 1 0 0 10000
0 0 1 0 1 1 1 0 1 1 10000
0 0 0 1 1 1 0 0 1 1 10000
0 1 1 0 0 0 1 0 1 0 0
1 1 1 1 1 0 0 1 1 0 10000
0 0 1 0 1 1 1 1 0 0 10000
0 1 0 1 0 0 0 1 0 1 0
0 0 1 1 1 0 0 1 0 1 10000
0 0 0 1 1 0 1 0 1 0 0
1 1 0 0 1 0 1 0 1 1 0
1 1 0 0 1 0 1 1 1 0 0
0 0 1 0 1 0 0 1 0 1 0
1 0 0 0 0 1 1 1 1 1 10000
0 1 1 0 1 0 0 1 1 0 10000
0 0 1 1 1 1 1 1 0 0 0
0 0 1 1 1 1 1 0 1 1 10000
0 1 1 0 1 0 1 0 0 0 10000
0 0 0 1 0 0 0 1 1 0 10000
0 1 1 0 1 1 1 1 1 1 10000
1 1 1 0 1 1 1 1 0 0 10000
1 0 0 1 0 0 1 1 0 1 10000
0 1 1 0 1 0 1 1 1 1 10000
0 1 1 0 1 1 1 0 0 0 10000
0 0 0 1 0 0 1 0 0 0 0
0 0 0 1 0 1 1 1 1 1 10000
0 1 0 0 0 0 0 0 0 1 0
1 1 1 0 1 0 1 1 0 1 10000
0 0 0 1 0 0 1 1 1 1 10000
0 1 1 0 1 1 0 1 1 0 0
0 0 0 1 0 1 1 0 0 0 10000
1 1 0 0 0 1 0 0 0 1 0
1 0 1 1 1 1 1 0 0 1 10000
1 0 1 1 1 0 1 1 1 0 10000
1 1 1 0 1 0 1 1 1 1 0
0 0 0 1 0 1 0 1 1 0 10000
0 0 0 0 0 1 1 0 1 0 10000
1 1 1 0 1 0 0 1 1 0 10000
1 0 1 1 1 0 0 0 0 0 10000
0 1 1 0 0 1 0 0 1 0 0
0 0 0 0 0 0 0 0 1 1 10000
1 0 1 1 1 0 0 1 1 1 10000
0 1 0 1 0 1 1 1 0 1 10000
0 0 0 1 1 1 0 0 1 0 0
0 0 0 0 0 0 0 1 0 0 10000
1 1 0 0 1 1 1 0 1 0 0
1 0 0 1 1 1 0 0 0 1 10000
0 0 1 0 1 1 1 1 0 1 10000
1 1 1 1 1 0 0 1 1 1 10000
0 0 1 1 1 0 0 1 0 0 10000
1 1 0 1 1 1 0 0 0 0 10000
1 1 1 0 0 1 0 0 0 1 10000
0 0 1 1 1 0 0 0 1 1 10000
0 1 1 0 1 0 0 1 1 1 0
1 0 0 1 0 1 0 1 0 1 10000
1 1 1 0 1 0 0 1 0 1 10000
1 0 1 1 0 1 0 0 1 0 10000
1 1 1 1 1 0 1 1 1 1 10000
0 1 1 0 1 0 0 0 0 0 10000
0 0 1 1 1 1 1 0 1 0 0
0 0 0 1 0 0 0 1 1 1 10000
1 1 1 0 1 0 1 1 0 0 10000
1 1 1 0 1 1 0 1 0 1 10000
1 0 0 1 0 0 1 1 0 0 0
0 1 1 0 1 0 1 1 1 0 0
0 0 0 1 0 0 0 0 0 0 10000
0 1 1 0 1 1 1 0 0 1 0
1 1 1 1 1 1 0 1 0 1 10000
1 0 0 1 0 0 1 0 1 1 10000
1 0 1 0 1 0 0 1 1 0 10000
1 0 1 1 1 1 0 1 1 0 10000
1 0 1 0 1 0 1 0 1 1 0
0 0 0 1 0 0 1 1 1 0 10000
0 0 0 1 0 1 1 0 0 1 10000
1 1 1 0 1 0 1 0 1 1 10000
1 0 1 1 1 1 1 0 0 0 10000
1 0 1 1 1 0 1 1 1 1 0
0 0 0 0 0 1 1 0 1 1 10000
1 0 1 1 1 1 1 1 1 1 10000
1 0 1 1 1 0 1 0 0 0 10000
0 0 0 0 0 1 1 1 0 0 10000
1 0 0 1 1 0 1 0 0 1 10000
1 0 1 1 1 0 0 1 1 0 10000
1 0 0 1 1 1 1 1 1 0 10000
1 1 1 1 1 1 0 1 0 0 10000
0 0 0 0 0 0 0 1 0 1 10000
1 0 1 1 1 1 0 1 0 1 10000
1 1 1 0 0 0 1 0 0 1 10000
1 0 0 1 1 1 0 0 0 0 10000
1 1 1 0 0 1 1 1 1 0 10000
1 0 1 0 1 0 1 1 0 0 10000
1 0 0 1 1 1 0 1 1 1 10000
1 0 1 1 0 0 1 0 1 0 10000
1 1 0 0 0 0 0 1 0 1 0
0 0 1 1 1 0 0 0 1 0 10000
0 1 0 0 0 1 1 1 0 1 10000
1 0 0 1 0 1 0 1 0 0 0
1 0 1 1 0 1 0 0 1 1 0
0 1 1 0 1 0 0 0 0 1 10000
1 1 0 0 0 0 1 1 0 1 10000
1 0 0 1 0 1 0 0 1 1 10000
1 0 1 1 0 1 0 1 0 0 10000
1 1 1 0 1 1 0 1 0 0 10000
1 1 1 1 0 0 0 0 1 0 10000
0 0 0 1 0 0 0 0 0 1 0
1 0 0 0 1 1 1 0 1 0 10000
1 1 1 0 1 1 0 0 1 1 10000
1 0 0 1 0 0 1 0 1 0 0
1 0 1 1 1 1 0 1 1 1 0
0 1 0 1 0 0 0 0 0 1 10000
1 1 1 0 1 0 1 0 1 0 10000
1 0 1 1 1 1 1 1 1 0 0
0 0 1 0 1 0 0 0 0 1 10000
1 0 1 1 1 0 1 0 0 1 10000
0 0 0 0 0 1 1 1 0 1 10000
1 0 0 1 1 0 1 0 0 0 10000
0 1 1 1 1 0 0 0 1 0 10000
1 0 0 1 1 1 1 1 1 1 10000
1 1 1 1 0 1 0 0 0 1 10000
1 1 0 0 1 1 0 0 0 1 10000
1 0 0 1 1 0 1 1 1 1 10000
1 0 1 0 1 1 0 1 0 1 0
1 0 0 1 1 1 1 0 0 0 10000
1 1 1 0 0 0 1 0 0 0 10000
1 1 1 0 0 1 1 1 1 1 10000
0 1 0 0 0 0 0 1 0 1 10000
1 0 0 1 1 1 0 1 1 0 0
1 1 1 0 0 1 1 0 0 0 10000
1 0 1 1 0 0 1 0 1 1 0
1 0 0 0 1 1 1 0 0 1 10000
1 1 0 0 0 1 0 1 0 1 10000
1 0 0 0 1 1 1 1 0 1 10000
1 0 1 1 0 0 1 1 0 0 10000
0 1 0 0 0 1 1 1 0 0 10000
1 1 1 1 0 1 1 0 1 0 10000
1 1 0 0 0 0 1 1 0 0 0
0 1 0 0 0 1 1 0 1 1 10000
1 0 0 0 1 0 0 0 1 1 0
1 0 1 1 0 1 0 1 0 1 0
1 1 1 1 0 0 0 0 1 1 10000
1 1 0 0 0 0 1 0 1 1 10000
0 1 0 1 0 1 1 0 0 1 10000
1 1 1 0 1 1 0 0 1 0 10000
0 1 0 1 0 0 1 1 1 0 10000
1 0 0 1 1 1 0 0 1 1 0
1 1 0 1 0 0 1 1 1 1 10000
0 0 1 0 1 1 1 0 0 1 10000
0 1 0 1 0 0 0 0 0 0 10000
0 0 1 0 1 0 1 1 1 0 10000
0 1 0 1 0 0 0 1 1 1 10000
0 1 1 1 1 1 1 0 1 0 10000
0 0 1 0 1 0 0 0 0 0 10000
1 1 0 1 0 1 0 1 0 1 0
1 1 0 0 1 0 1 0 0 1 10000
1 1 0 0 1 1 1 1 1 0 10000
0 0 1 0 1 0 0 1 1 1 10000
0 1 1 1 1 0 0 0 1 1 10000
1 0 0 0 1 0 0 1 0 0 10000
1 1 0 0 1 1 0 0 0 0 10000
1 0 1 0 0 1 1 1 0 1 10000
1 0 0 1 1 0 1 1 1 0 0
0 1 1 1 1 0 0 1 0 0 10000
1 0 0 1 1 1 1 0 0 1 0
0 1 1 0 1 1 1 1 0 1 10000
1 0 0 0 1 0 0 0 0 0 10000
0 1 0 0 0 0 0 1 0 0 0
0 1 0 1 1 1 0 0 1 0 10000
1 1 1 0 0 1 1 0 0 1 0
0 0 0 1 0 1 1 1 0 1 10000
1 1 0 0 0 1 0 1 0 0 0
0 1 0 0 0 0 0 0 1 1 10000
1 1 1 1 0 0 1 0 1 0 10000
1 0 1 1 0 0 1 1 0 1 0
0 0 1 0 0 1 0 0 1 0 10000
1 1 1 1 0 1 1 0 1 1 0
1 1 0 0 0 1 0 0 1 1 10000
0 1 0 0 0 1 1 0 1 0 10000
0 1 0 1 0 1 0 1 1 0 10000
1 1 0 0 0 0 1 0 1 0 0
0 1 0 1 0 1 1 0 0 0 0
0 0 1 0 1 1 0 1 1 0 10000
0 1 0 1 0 0 1 1 1 1 10000
0 0 0 0 0 0 0 0 0 1 10000
1 1 0 0 0 1 1 0 1 0 10000
0 1 0 1 0 1 1 1 1 1 10000
0 1 0 1 0 0 1 0 0 0 10000
0 0 1 0 1 1 1 0 0 0 0
0 0 1 0 1 0 1 1 1 1 10000
1 1 0 0 1 0 0 1 1 0 10000
0 0 1 0 1 1 1 1 1 1 10000
0 1 0 1 0 0 0 1 1 0 0
0 0 1 0 1 0 1 0 0 0 10000
0 1 1 1 1 1 1 0 1 1 0
1 1 0 0 1 0 1 0 0 0 10000
1 1 0 0 1 1 1 1 1 1 10000
0 1 1 1 1 1 1 1 0 0 10000
0 0 1 0 1 0 0 1 1 0 0
1 1 1 1 1 0 0 0 0 0 10000
0 1 1 0 1 0 0 1 0 1 10000
1 1 0 0 1 1 1 0 0 0 10000
1 1 1 0 0 1 0 1 0 0 10000
0 1 0 1 1 0 1 0 1 0 10000
0 1 1 1 1 0 0 1 0 1 10000
0 0 0 1 0 0 0 1 0 1 10000
0 1 1 0 1 1 1 1 0 0 0
1 1 1 0 0 1 0 0 0 0 10000
0 0 1 0 0 0 1 0 1 0 10000
0 1 0 1 1 1 0 0 1 1 0
0 1 1 0 1 1 1 0 1 1 10000
0 0 0 1 0 1 1 1 0 0 10000
0 1 0 0 0 0 0 0 1 0 0
0 1 0 1 1 1 0 1 0 0 10000
1 1 0 1 1 1 0 0 0 1 10000
0 0 1 0 0 1 0 0 1 1 10000
0 0 0 1 0 1 1 0 1 1 10000
1 1 0 0 0 1 0 0 1 0 0
0 0 1 0 0 1 0 1 0 0 10000
0 1 0 1 0 1 0 1 1 1 10000
0 0 0 0 0 1 1 0 0 1 10000
0 0 0 0 0 0 1 1 1 0 10000
0 1 0 1 0 1 0 0 0 0 10000
0 0 1 0 1 1 0 1 1 1 10000
0 0 0 0 0 0 0 0 0 0 0
0 1 0 1 0 1 1 1 1 0 10000
0 0 1 0 1 1 0 0 0 0 10000
0 1 0 1 0 0 1 0 0 1 0
1 1 1 0 0 1 0 1 1 1 10000
0 0 0 0 0 0 0 1 1 1 10000
1 1 0 0 1 0 0 1 1 1 0
0 0 1 0 1 1 1 1 1 0 10000
0 0 1 0 1 0 1 0 0 1 0
1 1 0 0 1 0 0 0 0 0 10000
0 1 1 1 1 1 1 1 0 1 0
0 1 1 0 1 0 0 1 0 0 10000
1 1 0 0 1 1 1 0 0 1 0
1 0 1 1 0 1 0 0 0 1 10000
0 1 0 1 1 0 1 0 1 1 0
0 1 1 0 1 0 0 0 1 1 10000
1 1 0 0 0 0 0 1 0 0 10000
0 0 0 1 0 0 0 1 0 0 0
0 0 0 0 1 1 0 0 1 0 10000
0 1 0 1 1 0 1 1 0 0 10000
0 0 1 0 0 0 1 0 1 1 10000
0 0 0 1 0 0 0 0 1 1 10000
0 1 1 0 1 1 1 0 1 0 0
1 0 0 0 1 1 1 0 0 0 0
0 0 1 0 0 0 1 1 0 0 10000
0 1 0 1 1 1 0 1 0 1 0
1 0 0 1 0 1 0 0 1 0 0
0 0 0 1 0 1 1 0 1 0 10000
0 0 0 0 0 1 0 1 1 0 10000
1 1 1 0 0 0 1 1 0 1 0
0 0 1 0 0 1 0 1 0 1 10000
0 0 0 0 0 1 1 0 0 0 10000
0 0 0 0 0 0 1 1 1 1 10000
1 0 1 1 1 0 1 0 1 1 10000
0 1 0 1 0 1 0 0 0 1 0
0 0 0 0 0 1 1 1 1 1 10000
0 0 0 0 0 0 1 0 0 0 10000
1 0 0 1 1 1 1 1 0 1 10000
0 0 1 0 1 1 0 0 0 1 0
1 1 1 1 1 0 1 1 0 1 10000
0 0 0 0 0 0 0 1 1 0 10000
1 1 0 0 0 0 0 1 1 1 10000
1 1 1 0 0 1 1 1 0 1 10000
1 1 1 1 1 0 0 1 0 0 10000
1 1 1 1 1 1 1 1 0 0 10000
1 1 0 0 1 0 0 0 0 1 10000
1 0 1 1 0 0 1 0 0 1 10000
1 0 1 1 0 1 1 1 1 0 10000
0 0 0 0 1 0 1 0 1 0 10000
1 0 1 1 0 1 0 0 0 0 10000
0 1 1 0 1 0 0 0 1 0 10000
1 0 0 0 0 1 0 0 1 0 10000
0 0 0 0 1 1 0 0 1 1 10000
1 0 1 1 0 1 0 1 1 1 10000
0 1 0 1 1 0 1 1 0 1 0
1 1 1 1 0 0 0 0 0 1 10000
1 1 1 0 1 1 1 1 1 0 0
0 0 0 1 0 0 0 0 1 0 0
0 0 0 0 1 1 0 1 0 0 10000
0 0 1 0 0 0 1 1 0 1 10000
1 0 1 0 0 0 0 0 1 0 10000
0 0 0 0 0 1 0 1 1 1 10000
1 0 1 1 1 1 0 0 1 1 10000
1 1 1 1 1 0 1 1 1 0 10000
1 1 0 1 1 0 0 0 1 0 10000
0 0 0 0 0 1 0 0 0 0 10000
1 0 0 1 1 0 0 1 0 1 10000
1 0 1 1 1 0 1 0 1 0 10000
0 0 0 0 0 1 1 1 1 0 10000
0 0 0 0 0 0 1 0 0 1 10000
0 1 1 1 1 0 0 0 0 1 10000
1 0 0 1 1 1 1 1 0 0 0
1 0 0 1 1 1 1 0 1 1 10000
1 0 1 1 0 0 0 1 1 0 10000
1 0 0 0 0 1 0 0 0 1 10000
1 1 1 0 0 1 1 0 1 1 10000
1 0 1 1 0 0 1 0 0 0 10000
1 0 1 1 0 1 1 1 1 1 10000
1 0 1 1 1 1 0 0 0 0 10000
0 0 0 0 1 0 1 0 1 1 10000
1 0 1 1 0 0 1 1 1 1 10000
1 0 1 1 0 1 1 0 0 0 10000
1 1 1 1 0 0 1 1 1 0 10000
0 0 0 0 1 0 1 1 0 0 10000
1 0 1 1 1 1 0 1 0 0 10000
1 0 1 1 0 1 0 1 1 0 0
1 0 1 0 0 1 1 0 1 0 10000
1 0 1 0 1 0 0 0 0 0 10000
1 0 1 0 1 0 1 1 0 1 0
1 0 1 1 1 1 1 1 0 1 0
0 0 0 0 1 1 0 1 0 1 10000
0 1 0 1 0 0 1 1 0 1 10000
1 1 0 1 1 1 1 0 1 0 10000
1 0 1 0 0 0 0 0 1 1 0
1 0 1 1 1 1 0 0 1 0 10000
0 0 1 0 1 0 1 1 0 1 10000
1 1 0 1 1 0 0 0 1 1 10000
0 0 0 0 0 1 0 0 0 1 10000
0 1 1 1 1 1 1 0 0 1 10000
1 0 0 1 1 0 0 1 0 0 10000
0 1 1 1 1 0 1 1 1 0 10000
1 0 0 0 1 1 1 0 1 1 10000
1 1 0 0 1 1 1 1 0 1 10000
1 0 0 1 1 0 0 0 1 1 10000
0 1 1 1 1 0 0 0 0 0 10000
1 1 1 1 1 1 0 0 1 0 10000
0 1 1 1 1 0 0 1 1 1 10000
1 0 0 1 1 0 0 1 1 0 10000
1 0 1 1 0 0 0 1 1 1 0
1 1 0 0 0 1 1 1 0 0 10000
0 1 0 1 1 1 0 0 0 1 10000
1 1 1 0 0 1 1 0 1 0 0
1 1 1 1 0 1 0 1 1 0 10000
1 1 0 1 0 0 0 0 0 0 10000
1 0 1 1 0 0 1 1 1 0 0
0 0 1 0 0 1 0 0 0 1 10000
1 0 1 1 0 1 1 0 0 1 0
1 1 1 1 0 0 1 1 1 1 0
0 0 0 0 1 0 1 1 0 1 10000
0 1 0 1 0 1 0 1 0 1 10000
1 0 0 0 1 1 1 1 0 0 10000
0 1 1 1 0 1 0 0 1 0 10000
1 0 1 0 0 1 1 0 1 1 10000
1 1 0 1 0 0 1 1 0 0 10000
0 0 1 0 1 1 0 1 0 1 10000
0 1 0 1 0 0 1 1 0 0 0
1 1 0 1 1 1 1 0 1 1 0
0 1 0 1 0 0 1 0 1 1 10000
0 1 1 1 1 1 0 1 1 0 10000
0 0 1 0 1 0 1 1 0 0 0
1 1 0 0 1 0 0 1 0 1 10000
1 1 0 1 0 1 0 1 0 0 10000
0 0 1 0 1 0 1 0 1 1 10000
0 1 1 1 1 1 1 0 0 0 10000
1 1 0 1 0 1 0 1 1 0 0
0 1 1 1 1 0 1 1 1 1 0
1 1 1 0 0 0 0 1 1 0 10000
1 1 0 0 1 1 1 1 0 0 0
0 1 1 1 1 1 1 1 1 1 10000
1 0 0 1 1 0 0 0 1 0 10000
0 1 1 1 1 0 1 0 0 0 10000
1 1 1 1 1 1 0 0 1 1 10000
1 1 0 0 1 1 1 0 1 1 10000
1 1 0 1 0 0 1 1 1 0 0
0 1 0 1 1 0 1 0 0 1 10000
0 1 1 1 1 0 0 1 1 0 10000
0 1 0 1 1 1 1 1 1 0 10000
1 0 0 0 1 1 1 1 1 1 10000
0 0 1 0 0 0 1 0 0 1 10000
0 1 0 1 1 1 0 0 0 0 10000
0 0 1 0 0 1 1 1 1 0 10000
1 1 1 1 0 1 0 1 1 1 0
0 1 0 1 1 1 0 1 1 1 10000
0 1 1 1 0 0 1 0 1 0 10000
0 0 1 0 0 1 0 0 0 0 0
0 0 1 0 0 1 0 1 1 1 10000
0 1 0 1 0 1 0 1 0 0 0
0 1 1 1 0 1 0 0 1 1 0
0 0 0 0 0 0 1 1 0 1 10000
0 1 0 1 0 1 0 0 1 1 10000
0 1 1 1 0 1 0 1 0 0 10000
0 0 1 0 1 1 0 1 0 0 0
0 0 1 1 0 0 0 0 1 0 10000
0 0 1 0 1 1 0 0 1 1 10000
0 1 0 1 0 0 1 0 1 0 0
0 1 1 1 1 1 0 1 1 1 0
0 1 1 1 0 1 1 0 0 1 0
1 1 1 0 0 0 0 1 0 1 10000
0 1 1 1 1 1 0 0 0 0 10000
0 0 1 0 1 0 1 0 1 0 0
1 1 1 1 1 0 1 0 1 1 10000
1 1 0 0 1 0 0 0 1 1 10000
0 1 1 1 1 1 1 1 1 0 0
0 1 0 1 1 0 0 1 1 0 10000
0 1 1 1 1 0 1 0 0 1 10000
1 0 1 0 1 0 0 1 1 1 0
1 0 0 0 1 0 0 1 1 0 0
0 1 0 1 1 0 1 0 0 0 10000
0 0 1 0 0 0 0 1 1 0 10000
0 1 0 1 1 1 1 1 1 1 10000
0 0 0 0 1 1 0 0 0 1 10000
0 1 0 1 1 0 1 1 1 1 10000
1 1 1 0 0 0 1 1 1 1 10000
0 1 0 1 1 1 1 0 0 0 10000
0 0 1 0 0 0 1 0 0 0 0
0 0 1 0 0 1 1 1 1 1 10000
0 0 1 0 0 0 1 1 1 1 10000
0 1 0 1 1 1 0 1 1 0 0
0 0 1 0 0 1 1 0 0 0 10000
0 1 1 1 0 0 1 0 1 1 0
1 1 1 0 0 1 0 1 0 1 0
0 0 0 0 0 1 0 1 0 1 10000
1 0 0 0 1 0 1 1 1 0 10000
0 1 1 1 0 0 1 1 0 0 10000
0 0 1 0 0 1 0 1 1 0 10000
0 0 1 1 0 1 1 0 1 0 10000
1 1 1 0 0 1 1 1 0 0 0
0 0 0 0 0 0 1 1 0 0 10000
0 1 0 1 0 1 0 0 1 0 0
0 1 1 1 0 1 0 1 0 1 0
0 0 1 1 0 0 0 0 1 1 0
0 0 0 0 0 0 1 0 1 1 10000
1 1 0 1 0 0 1 1 0 1 0
0 0 1 0 1 1 0 0 1 0 0
0 0 1 1 0 0 0 1 0 0 10000
0 1 1 1 1 1 0 0 0 1 10000
1 1 0 0 1 0 0 0 1 0 10000
1 0 1 1 0 1 1 1 0 1 10000
0 1 0 1 1 0 0 1 1 1 0
0 0 0 0 1 0 1 0 0 1 10000
0 0 0 0 1 1 1 1 1 0 10000
0 1 0 1 1 0 0 0 0 0 10000
1 1 1 0 0 1 0 1 1 0 0
0 0 1 0 0 0 0 1 1 1 10000
0 0 0 0 1 1 0 0 0 0 0
1 1 0 1 1 1 1 1 1 0 0
0 1 0 1 1 0 1 1 1 0 0
0 0 1 0 0 0 0 0 0 0 10000
0 1 0 1 1 1 1 0 0 1 0
0 0 0 0 1 1 0 1 1 1 10000
1 1 0 0 0 1 1 1 1 1 10000
1 0 0 0 1 1 0 1 1 0 10000
0 0 1 0 0 0 1 1 1 0 10000
1 0 1 0 0 0 0 0 0 1 10000
0 0 1 0 0 1 1 0 0 1 10000
0 0 0 0 0 1 0 1 0 0 10000
1 0 0 0 1 0 1 1 1 1 10000
0 1 1 1 0 0 1 1 0 1 0
1 1 0 1 1 0 0 0 0 1 10000
0 0 1 1 0 1 1 0 1 1 10000
0 0 0 0 0 1 0 0 1 1 10000
1 0 0 0 1 0 1 0 0 0 10000
0 0 1 1 0 1 1 1 0 0 10000
1 0 0 0 0 0 1 0 1 0 10000
0 0 0 0 0 0 1 0 1 0 10000
1 1 1 1 1 0 0 0 1 0 10000
0 0 1 1 0 0 0 1 0 1 0
1 0 1 1 1 0 1 1 0 0 10000
1 0 1 1 0 0 0 1 0 1 10000
1 1 1 1 0 1 1 0 0 1 10000
0 0 0 0 1 0 0 1 1 0 10000
1 0 1 1 0 1 1 1 0 0 0
0 0 0 0 1 0 1 0 0 0 0
0 0 0 0 1 1 1 1 1 1 10000
1 0 1 1 0 1 1 0 1 1 10000
0 1 0 1 1 0 0 0 0 1 10000
1 1 1 1 0 0 1 1 0 1 10000
0 0 0 0 1 0 1 1 1 1 10000
0 0 0 0 1 1 1 0 0 0 10000
1 1 0 0 0 0 0 1 1 0 0
1 0 1 0 0 1 1 0 0 1 10000
0 0 1 0 0 0 0 0 0 1 0
1 0 1 0 0 0 1 1 1 0 10000
0 0 0 0 1 1 0 1 1 0 10000
1 0 0 0 0 0 1 0 0 1 10000
1 1 0 1 1 1 1 0 0 1 10000
1 0 1 0 0 0 0 0 0 0 10000
1 1 0 1 1 0 1 1 1 0 10000
1 0 0 0 1 1 0 0 0 0 10000
1 0 1 0 0 0 0 1 1 1 10000
1 0 0 0 0 1 0 0 1 1 10000
0 0 0 0 0 1 0 0 1 0 10000
1 0 0 0 1 0 1 0 0 1 0
1 1 1 1 1 0 0 0 0 1 10000
0 1 1 1 1 0 1 1 0 1 10000
0 0 1 1 0 1 1 1 0 1 10000
1 1 1 1 0 0 0 1 0 0 10000
0 1 0 0 1 0 0 0 1 0 10000
1 1 1 1 1 1 0 0 0 1 10000
1 1 1 1 0 0 0 0 0 0 10000
1 0 1 1 0 0 0 1 0 0 10000
1 0 1 0 1 1 0 0 1 0 10000
0 0 0 0 1 0 0 1 1 1 10000
1 0 1 1 0 0 0 0 1 1 10000
1 1 1 1 0 1 0 1 0 1 10000
1 1 1 0 0 0 0 0 1 0 10000
1 1 0 1 0 1 0 0 1 0 10000
0 0 0 0 1 0 0 0 0 0 10000
1 0 0 0 0 1 0 1 0 0 10000
1 0 1 1 0 1 1 0 1 0 0
1 0 1 0 0 1 0 1 1 0 10000
1 1 1 1 0 0 1 1 0 0 10000
0 0 0 0 1 0 1 1 1 0 10000
0 0 0 0 1 1 1 0 0 1 10000
1 0 0 0 0 1 0 0 0 0 0
0 1 1 1 0 1 0 0 0 1 10000
1 0 1 0 0 1 1 0 0 0 0
1 1 0 1 1 1 0 1 1 0 10000
1 0 1 0 0 0 1 1 1 1 10000
1 0 1 0 0 1 1 1 1 1 10000
1 1 1 1 0 0 0 1 1 1 10000
1 0 1 0 0 0 1 0 0 0 10000
1 0 1 1 1 1 0 0 0 1 10000
1 1 0 1 1 0 1 1 1 1 0
1 0 0 0 1 1 0 0 0 1 0
1 1 1 0 1 0 0 0 1 0 10000
0 1 1 1 1 1 0 1 0 1 10000
1 0 1 0 0 0 0 1 1 0 0
1 1 0 1 1 0 1 0 0 0 10000
0 1 0 0 1 1 1 0 1 0 10000
1 0 1 0 1 0 0 0 0 1 10000
1 1 1 1 1 0 1 0 0 1 10000
0 1 1 1 1 0 1 1 0 0 10000
1 1 1 1 1 1 1 1 1 0 10000
0 1 0 0 1 0 0 0 1 1 0
0 1 1 1 1 0 1 0 1 1 10000
1 0 1 0 1 0 1 0 1 0 10000
1 1 1 1 1 1 0 0 0 0 10000
1 1 0 0 0 1 1 1 1 0 10000
1 0 0 0 0 1 0 1 1 1 10000
0 1 0 0 1 0 0 1 0 0 10000
0 1 0 1 1 1 1 1 0 1 10000
1 1 0 1 0 0 1 0 1 0 10000
1 0 1 0 1 1 0 0 1 1 0
1 0 0 0 1 1 0 1 1 1 10000
0 0 1 0 0 1 1 1 0 1 10000
1 1 1 1 0 1 0 1 0 0 10000
1 1 0 1 0 1 0 0 1 1 0
0 0 0 0 1 0 0 0 0 1 0
0 1 1 1 0 0 1 0 0 1 10000
0 1 1 1 0 1 1 1 1 0 10000
1 0 1 0 0 1 0 1 1 1 10000
1 0 1 0 0 0 0 1 0 0 10000
1 0 0 1 1 0 0 1 1 1 0
1 0 1 0 0 1 0 0 0 0 10000
0 1 1 1 0 1 0 0 0 0 10000
1 0 1 0 0 0 1 1 0 1 10000
0 1 1 1 0 1 0 1 1 1 10000
1 0 1 0 0 1 1 1 1 0 10000
0 0 1 1 0 0 0 0 0 1 10000
1 0 1 0 0 0 1 0 0 1 0
1 1 0 1 0 0 0 0 0 1 10000
0 1 1 1 1 1 0 1 0 0 10000
0 1 1 0 0 0 0 0 1 0 10000
1 1 0 1 1 0 1 0 0 1 10000
0 1 0 0 1 1 1 0 1 1 10000
0 1 1 1 1 1 0 0 1 1 10000
1 1 1 1 1 0 1 0 0 0 10000
0 0 0 1 1 0 0 0 1 0 10000
1 1 1 1 1 1 1 1 1 1 0
0 1 0 0 1 1 1 1 0 0 10000
0 1 0 1 1 0 0 1 0 1 10000
0 1 1 1 1 0 1 0 1 0 10000
1 1 1 1 1 1 1 0 0 0 10000
1 0 0 1 1 0 0 0 0 0 10000
0 1 0 0 1 0 0 1 0 1 0
0 0 1 0 0 0 0 1 0 1 10000
0 1 0 1 1 1 1 1 0 0 0
1 1 0 1 0 0 1 0 1 1 0
1 1 0 1 1 0 0 0 0 0 10000
0 1 0 1 1 1 1 0 1 1 10000
1 1 0 1 1 0 0 1 0 0 10000
0 1 1 1 0 0 0 1 1 0 10000
0 0 1 0 0 1 1 1 0 0 10000
1 1 1 0 1 0 0 1 0 0 10000
0 0 1 0 0 1 1 0 1 1 10000
0 1 1 1 0 0 1 0 0 0 10000
0 1 1 1 0 1 1 1 1 1 10000
1 1 1 1 1 0 1 1 0 0 10000
1 0 0 0 1 0 1 1 0 1 10000
1 1 0 0 1 1 0 1 0 0 10000
0 1 1 1 0 0 1 1 1 1 10000
0 0 1 1 0 1 1 0 0 1 10000
1 0 1 0 0 1 0 0 0 1 0
0 0 1 1 0 0 1 1 1 0 10000
1 0 0 0 1 1 1 1 1 0 10000
0 1 1 1 0 1 0 1 1 0 0
0 1 1 0 0 1 1 0 1 0 10000
0 0 1 1 0 0 0 0 0 0 10000
0 0 1 1 0 0 0 1 1 1 10000
0 0 0 1 1 1 1 0 1 0 10000
0 1 1 0 0 0 0 0 1 1 0
1 1 1 0 0 0 0 0 0 0 10000
0 1 1 1 1 1 0 0 1 0 10000
0 1 1 0 0 0 0 1 0 0 10000
0 0 0 1 1 0 0 0 1 1 0
0 1 0 0 1 1 1 1 0 1 10000
1 1 1 0 0 0 0 1 0 0 10000
0 1 0 1 1 0 0 1 0 0 10000
0 0 0 1 1 0 0 1 0 0 10000
1 1 1 1 1 1 1 0 0 1 10000
0 0 0 0 1 1 1 1 0 1 10000
0 1 0 1 1 0 0 0 1 1 10000
0 0 1 0 0 0 0 1 0 0 0
0 0 1 1 1 1 0 0 1 0 10000
1 1 0 0 1 1 0 1 1 1 10000
0 0 1 0 0 0 0 0 1 1 10000
0 1 0 1 1 1 1 0 1 0 0
0 1 1 1 0 0 0 1 1 1 0
1 0 0 0 1 1 0 1 0 1 10000
0 1 1 1 0 0 0 0 0 0 10000
0 0 1 0 0 1 1 0 1 0 10000
0 0 1 1 0 1 0 1 1 0 10000
1 0 0 0 1 0 1 1 0 0 0
0 1 1 1 0 0 1 1 1 0 0
0 0 1 1 0 1 1 0 0 0 0
0 0 1 1 0 0 1 1 1 1 10000
1 0 0 0 1 0 1 0 1 1 10000
1 1 1 0 0 0 1 1 1 0 0
0 0 1 1 0 1 1 1 1 1 10000
1 0 0 1 1 1 1 0 1 0 0
0 0 1 1 0 0 1 0 0 0 10000
0 1 1 0 0 1 1 0 1 1 10000
1 0 0 0 1 0 0 1 0 1 0
0 1 1 0 0 1 1 1 0 0 10000
0 0 1 1 0 0 0 1 1 0 0
0 0 0 1 1 1 1 0 1 1 10000
1 1 1 0 0 0 1 0 1 1 0
0 0 0 1 1 1 1 1 0 0 10000
0 1 1 0 0 0 0 1 0 1 0
0 0 0 0 1 0 0 1 0 1 10000
1 1 0 0 0 1 1 1 0 1 10000
1 0 0 0 0 1 1 1 1 0 10000
0 0 1 1 1 0 1 0 1 0 10000
0 0 0 1 1 0 0 1 0 1 0
0 0 0 0 1 1 1 1 0 0 10000
0 1 0 1 1 0 0 0 1 0 10000
0 0 1 1 1 1 0 0 1 1 0
0 0 0 0 1 1 1 0 1 1 10000
0 0 1 0 0 0 0 0 1 0 0
0 0 1 1 1 1 0 1 0 0 10000
1 0 0 0 1 1 0 1 0 0 0
1 0 0 1 0 0 0 0 1 0 10000
1 0 1 1 0 0 0 0 0 0 10000
0 1 1 1 0 0 0 0 0 1 10000
1 1 0 1 1 0 1 1 0 1 10000
0 0 1 1 0 1 0 1 1 1 10000
1 0 0 0 1 1 0 0 1 1 10000
1 1 1 0 0 0 0 0 1 1 10000
0 0 1 1 0 1 0 0 0 0 10000
1 1 1 1 0 1 1 1 0 1 0
1 0 1 0 0 1 0 1 0 0 0
1 0 0 0 1 0 1 0 1 0 0
0 0 1 1 0 1 1 1 1 0 10000
0 0 1 1 0 0 1 0 0 1 0
0 1 0 0 1 0 0 0 0 1 10000
0 1 1 0 0 1 1 1 0 1 10000
1 0 0 0 0 0 0 1 1 0 10000
1 0 1 0 1 1 0 0 0 1 10000
0 0 0 1 1 1 1 1 0 1 10000
0 0 0 0 1 0 0 1 0 0 0
1 0 0 0 0 0 1 0 1 1 10000
1 1 0 1 0 1 0 0 0 1 10000
0 0 1 1 1 0 1 0 1 1 0
0 0 0 0 1 0 0 0 1 1 10000
1 1 0 1 1 0 0 1 1 1 10000
1 0 0 0 0 1 1 0 0 0 10000
1 1 1 1 0 1 1 1 0 0 10000
0 0 1 1 1 0 1 1 0 0 10000
0 0 0 0 1 1 1 0 1 0 10000
1 0 0 1 0 1 1 0 1 0 10000
1 1 1 1 0 1 1 0 0 0 10000
1 1 0 1 1 1 0 1 0 1 10000
0 0 1 1 1 1 0 1 0 1 0
1 1 1 0 1 1 1 0 1 0 10000
1 0 0 1 0 0 0 0 1 1 0
1 0 1 0 0 0 1 0 1 1 10000
1 1 0 1 1 0 1 1 0 0 10000
1 0 0 0 1 1 0 0 1 0 0
1 0 0 1 0 0 0 1 0 0 10000
1 1 1 0 1 0 0 0 1 1 10000
1 1 0 1 1 0 1 0 1 1 10000
0 0 1 1 0 1 0 0 0 1 0
1 0 0 0 0 0 1 1 0 0 10000
0 1 0 0 1 1 1 0 0 1 10000
0 1 0 0 1 0 1 1 1 0 10000
1 1 1 1 1 1 1 1 0 1 10000
1 0 1 1 1 1 1 0 1 1 0
1 0 0 0 0 0 1 0 0 0 0
0 1 0 0 1 0 0 0 0 0 10000
1 1 1 1 1 0 0 1 0 1 10000
1 0 1 0 1 0 1 0 0 1 10000
1 0 1 0 1 1 1 1 1 0 10000
0 1 0 0 1 0 0 1 1 1 10000
1 1 1 1 0 1 1 1 1 1 10000
1 0 0 0 0 0 0 1 1 1 10000
1 1 0 1 0 0 1 0 0 1 10000
1 0 1 0 1 1 0 0 0 0 10000
1 1 0 1 0 1 1 1 1 0 10000
1 0 0 0 0 0 0 0 0 0 10000
1 1 1 1 0 0 1 0 0 0 10000
1 0 1 0 1 1 0 1 1 1 10000
1 1 1 1 0 0 0 1 0 1 10000
1 1 0 1 0 1 0 0 0 0 10000
0 0 0 0 1 0 0 0 1 0 0
1 0 0 0 0 1 1 0 0 1 10000
0 1 1 1 0 1 1 1 0 1 10000
0 0 1 1 1 0 1 1 0 1 0
0 1 0 0 0 1 0 0 1 0 10000
1 0 0 1 0 1 1 0 1 1 10000
1 0 1 0 0 1 0 0 1 1 10000
1 0 0 0 0 0 1 1 1 1 10000
1 1 0 1 1 1 0 1 0 0 10000
1 1 0 0 0 0 0 0 1 0 10000
1 0 0 1 0 1 1 1 0 0 10000
1 1 1 0 1 1 1 0 1 1 0
1 1 0 1 1 1 0 0 1 1 10000
1 0 1 0 0 0 1 0 1 0 0
1 1 1 1 0 0 1 0 0 1 10000
1 0 0 0 0 1 0 1 0 1 10000
0 1 0 0 1 1 0 1 1 0 10000
1 0 0 1 0 0 0 1 0 1 0
0 1 1 0 0 0 0 0 0 1 10000
1 1 0 1 1 0 1 0 1 0 10000
0 1 0 0 1 1 1 0 0 0 0
0 1 0 0 1 0 1 1 1 1 10000
1 0 1 0 0 1 1 1 0 0 10000
0 0 0 1 1 0 0 0 0 1 10000
1 1 1 0 0 0 1 1 0 0 10000
0 1 0 0 1 1 1 1 1 1 10000
1 1 1 1 0 0 1 0 1 1 10000
0 1 0 0 1 0 1 0 0 0 10000
1 1 1 1 0 0 0 1 1 0 10000
1 0 1 0 0 1 0 1 0 1 10000
1 1 1 1 1 1 1 0 1 1 10000
1 0 1 0 1 0 1 0 0 0 10000
1 1 0 1 0 0 0 1 1 0 10000
1 0 1 0 1 1 1 1 1 1 10000
0 1 0 0 1 0 0 1 1 0 0
1 0 1 0 1 0 1 1 1 1 10000
1 0 1 0 1 1 1 0 0 0 10000
1 1 0 1 0 0 1 0 0 0 10000
1 1 0 1 0 1 1 1 1 1 10000
1 0 0 0 0 0 0 0 0 1 0
0 1 1 1 0 0 0 1 0 1 10000
1 0 1 0 1 1 0 1 1 0 0
1 1 0 1 0 1 1 0 0 0 10000
0 1 0 0 0 0 1 0 1 0 10000
1 1 0 1 1 0 0 1 0 1 10000
0 1 1 1 0 1 1 1 0 0 0
1 0 0 0 0 1 0 1 1 0 10000
0 1 0 0 0 1 0 0 1 1 10000
0 1 1 1 0 1 1 0 1 1 10000
1 0 1 0 0 1 0 0 1 0 0
0 0 1 1 0 0 1 1 0 1 10000
1 1 0 0 0 0 0 0 1 1 0
0 1 0 0 0 1 0 1 0 0 10000
1 0 0 1 0 1 1 1 0 1 10000
0 1 1 0 0 1 1 0 0 1 10000
1 1 0 1 1 1 0 0 1 0 10000
0 1 1 0 0 0 1 1 1 0 10000
1 1 0 0 1 0 1 1 0 0 10000
1 1 0 1 1 1 1 1 0 0 10000
0 1 0 0 1 1 0 1 1 1 10000
0 0 0 1 1 1 1 0 0 1 10000
0 1 1 0 0 0 0 0 0 0 10000
0 0 0 1 1 0 1 1 1 0 10000
1 1 0 0 1 1 0 1 0 1 0
0 1 0 0 1 1 0 0 0 0 10000
1 1 0 1 1 1 1 0 0 0 10000
0 1 1 0 0 0 0 1 1 1 10000
1 0 1 0 0 0 1 1 0 0 0
0 0 0 1 1 0 0 0 0 0 10000
0 1 0 0 1 1 1 1 1 0 10000
0 1 0 0 1 0 1 0 0 1 0
0 0 0 1 1 0 0 1 1 1 10000
1 1 1 1 1 1 1 0 1 0 10000
1 1 0 1 0 0 0 1 1 1 0
1 0 1 0 1 0 1 1 1 0 0
0 0 1 1 1 1 0 0 0 1 10000
1 0 1 0 1 1 1 0 0 1 0
0 1 1 1 0 0 0 1 0 0 10000
0 1 1 0 1 1 0 0 1 0 10000
1 1 0 1 0 1 1 0 0 1 0
0 1 0 0 0 0 1 0 1 1 10000
0 1 1 1 0 0 0 0 1 1 10000
1 0 0 1 1 0 0 0 0 1 10000
0 0 1 1 0 1 0 1 0 1 10000
1 1 0 1 1 1 1 1 1 1 10000
0 0 0 1 0 1 0 0 1 0 10000
1 1 0 0 0 1 1 0 1 1 10000
0 1 0 0 0 0 1 1 0 0 10000
0 1 1 1 0 1 1 0 1 0 0
0 1 1 0 0 1 0 1 1 0 10000
0 0 1 1 0 0 1 1 0 0 0
0 1 0 0 0 1 0 1 0 1 10000
1 1 0 0 1 0 1 1 1 1 10000
0 0 1 1 0 0 1 0 1 1 10000
0 1 1 0 0 1 1 0 0 0 0
0 0 0 1 1 1 0 1 1 0 10000
0 1 1 0 0 0 1 1 1 1 10000
0 1 1 0 0 1 1 1 1 1 10000
0 1 1 0 0 0 1 0 0 0 10000
0 0 0 1 1 1 1 0 0 0 0
0 0 0 1 1 0 1 1 1 1 10000
0 1 0 0 1 1 0 0 0 1 0
0 0 0 1 1 1 1 1 1 1 10000
0 1 1 0 0 0 0 1 1 0 0
0 0 0 1 1 0 1 0 0 0 10000
1 0 0 0 0 1 1 1 0 1 10000
1 1 1 0 1 1 1 1 0 1 0
0 0 1 1 1 0 1 0 0 1 10000
0 0 0 1 1 0 0 1 1 0 0
0 0 1 1 1 1 1 1 1 0 10000
0 1 1 0 1 0 1 0 1 0 10000
0 0 1 1 1 1 0 0 0 0 10000
1 1 1 0 0 0 0 0 0 1 10000
0 0 1 1 1 1 0 1 1 1 10000
0 0 0 1 0 0 1 0 1 0 10000
0 1 1 0 1 1 0 0 1 1 0
1 0 0 1 0 0 0 0 0 1 10000
0 1 1 1 0 0 0 0 1 0 10000
0 1 1 0 1 1 0 1 0 0 10000
0 0 1 1 0 1 0 1 0 0 0
0 0 0 1 0 1 0 0 1 1 10000
0 1 0 0 0 0 1 1 0 1 10000
1 1 1 0 1 0 0 0 0 1 10000
0 0 1 1 0 1 0 0 1 1 10000
1 1 0 0 1 1 0 1 1 0 0
0 0 0 1 0 1 0 1 0 0 10000
0 1 1 0 0 1 0 1 1 1 10000
1 0 1 1 1 0 0 0 1 0 10000
0 1 1 0 0 1 0 0 0 0 10000
0 0 1 1 0 0 1 0 1 0 0
0 0 0 1 1 1 0 1 1 1 10000
0 1 1 0 0 1 1 1 1 0 10000
0 0 0 1 1 1 0 0 0 0 10000
0 1 1 0 0 0 1 0 0 1 0
1 0 0 0 0 0 0 1 0 1 10000
0 0 0 1 1 1 1 1 1 0 10000
0 0 1 1 1 0 0 1 1 0 10000
0 0 0 1 1 0 1 0 0 1 0
1 1 1 1 1 1 0 1 1 0 10000
1 0 0 0 0 1 1 1 0 0 10000
1 1 1 1 1 0 0 0 1 1 10000
0 0 1 1 1 0 1 0 0 0 10000
0 0 1 1 1 1 1 1 1 1 10000
1 0 0 0 0 1 1 0 1 1 10000
0 0 1 1 1 0 1 1 1 1 10000
0 0 1 1 1 1 1 0 0 0 10000
0 1 1 0 1 0 1 0 1 1 0
1 0 0 1 0 1 1 0 0 1 10000
1 0 0 1 0 0 1 1 1 0 10000
0 1 1 0 1 0 1 1 0 0 10000
0 0 1 1 1 1 0 1 1 0 0
0 0 0 1 0 0 1 0 1 1 10000
1 1 1 0 1 1 1 0 0 1 10000
1 0 0 1 0 0 0 0 0 0 10000
1 1 1 0 1 0 1 1 1 0 10000
0 0 0 1 0 0 1 1 0 0 10000
0 1 1 0 1 1 0 1 0 1 0
1 0 0 1 0 0 0 1 1 1 10000
1 1 1 0 1 0 0 1 1 1 10000
1 0 1 1 1 1 1 0 1 0 10000
1 1 1 0 1 0 0 0 0 0 10000
1 1 0 1 1 0 0 1 1 0 10000
0 0 1 1 0 1 0 0 1 0 0
0 0 0 1 0 1 0 1 0 1 10000
0 1 0 0 1 0 1 1 0 1 10000
4 5 6 18 22 0 16
1 0 1 1 10000
1 1 0 1 0
1 0 0 0 0
0 1 1 0 10000
1 0 1 0 10000
0 0 0 1 10000
0 0 1 1 10000
1 0 0 1 10000
0 1 0 0 0
1 1 1 1 10000
0 0 0 0 10000
0 0 1 0 10000
0 1 0 1 10000
1 1 1 0 0
0 1 1 1 10000
1 1 0 0 10000
6 7 8 9 0 11 16 0 64
1 0 0 1 1 1 10000
0 1 0 1 1 0 10000
0 1 1 1 0 1 0
1 1 0 0 1 0 10000
0 0 1 0 1 0 0
0 1 1 0 0 0 10000
1 0 0 0 0 0 10000
0 1 1 1 1 1 10000
1 0 0 1 0 0 0
1 1 1 1 1 0 10000
0 0 1 0 0 1 0
0 1 1 0 1 1 0
0 0 1 1 0 0 0
0 1 1 1 0 0 10000
1 0 1 1 0 1 0
0 0 1 0 1 1 10000
1 1 1 0 1 0 10000
0 1 1 0 0 1 10000
1 0 1 0 0 0 10000
0 0 1 1 1 1 10000
1 1 1 1 0 0 10000
1 0 1 1 1 1 10000
1 0 0 1 1 0 10000
0 0 1 0 0 0 10000
1 1 1 0 0 1 10000
0 1 1 0 1 0 10000
1 0 1 0 1 1 0
0 0 1 1 0 1 10000
0 0 0 1 1 0 10000
1 0 1 1 0 0 10000
1 1 1 0 1 1 10000
1 0 1 0 0 1 10000
1 1 1 1 0 1 10000
0 0 1 1 1 0 10000
0 0 0 1 0 1 10000
0 0 0 0 0 0 0
1 1 1 0 0 0 10000
1 0 1 0 1 0 10000
0 1 0 0 1 0 0
0 0 0 1 1 1 10000
1 1 0 1 1 0 0
0 0 0 0 1 1 10000
1 0 0 1 0 1 10000
0 1 0 0 0 1 0
0 0 0 1 0 0 10000
1 1 0 1 0 1 0
0 1 0 1 0 0 0
0 0 0 0 0 1 10000
1 1 0 0 0 0 10000
0 1 0 0 1 1 10000
1 0 0 0 1 0 0
1 1 0 1 1 1 10000
0 1 0 1 1 1 10000
0 0 0 0 1 0 10000
1 1 0 0 1 1 0
0 1 0 0 0 0 10000
1 0 0 0 0 1 0
1 1 0 1 0 0 10000
0 1 0 1 0 1 10000
0 1 1 1 1 0 0
1 1 0 0 0 1 10000
1 0 1 1 1 0 0
1 1 1 1 1 1 0
1 0 0 0 1 1 10000
4 10 11 1 8 0 16
1 0 1 1 10000
1 1 0 1 10000
1 0 0 0 10000
0 1 1 0 0
1 0 1 0 0
0 0 0 1 10000
0 0 1 1 10000
1 0 0 1 0
0 1 0 0 10000
1 1 1 1 0
0 0 0 0 0
0 0 1 0 10000
0 1 0 1 0
1 1 1 0 10000
0 1 1 1 10000
1 1 0 0 10000
6 12 13 14 2 24 19 0 64
1 0 0 1 1 1 10000
0 1 0 1 1 0 10000
0 1 1 1 0 1 0
1 1 0 0 1 0 10000
0 0 1 0 1 0 0
0 1 1 0 0 0 10000
1 0 0 0 0 0 10000
0 1 1 1 1 1 10000
1 0 0 1 0 0 0
1 1 1 1 1 0 10000
0 0 1 0 0 1 0
0 1 1 0 1 1 0
0 0 1 1 0 0 0
0 1 1 1 0 0 10000
1 0 1 1 0 1 0
0 0 1 0 1 1 10000
1 1 1 0 1 0 10000
0 1 1 0 0 1 10000
1 0 1 0 0 0 10000
0 0 1 1 1 1 10000
1 1 1 1 0 0 10000
1 0 1 1 1 1 10000
1 0 0 1 1 0 10000
0 0 1 0 0 0 10000
1 1 1 0 0 1 10000
0 1 1 0 1 0 10000
1 0 1 0 1 1 0
0 0 1 1 0 1 10000
0 0 0 1 1 0 10000
1 0 1 1 0 0 10000
1 1 1 0 1 1 10000
1 0 1 0 0 1 10000
1 1 1 1 0 1 10000
0 0 1 1 1 0 10000
0 0 0 1 0 1 10000
0 0 0 0 0 0 0
1 1 1 0 0 0 10000
1 0 1 0 1 0 10000
0 1 0 0 1 0 0
0 0 0 1 1 1 10000
1 1 0 1 1 0 0
0 0 0 0 1 1 10000
1 0 0 1 0 1 10000
0 1 0 0 0 1 0
0 0 0 1 0 0 10000
1 1 0 1 0 1 0
0 1 0 1 0 0 0
0 0 0 0 0 1 10000
1 1 0 0 0 0 10000
0 1 0 0 1 1 10000
1 0 0 0 1 0 0
1 1 0 1 1 1 10000
0 1 0 1 1 1 10000
0 0 0 0 1 0 10000
1 1 0 0 1 1 0
0 1 0 0 0 0 10000
1 0 0 0 0 1 0
1 1 0 1 0 0 10000
0 1 0 1 0 1 10000
0 1 1 1 1 0 0
1 1 0 0 0 1 10000
1 0 1 1 1 0 0
1 1 1 1 1 1 0
1 0 0 0 1 1 10000
4 15 16 3 9 0 16
1 0 1 1 0
1 1 0 1 10000
1 0 0 0 10000
0 1 1 0 10000
1 0 1 0 10000
0 0 0 1 0
0 0 1 1 10000
1 0 0 1 10000
0 1 0 0 10000
1 1 1 1 10000
0 0 0 0 10000
0 0 1 0 0
0 1 0 1 10000
1 1 1 0 10000
0 1 1 1 0
1 1 0 0 10000
8 17 18 19 20 4 5 14 23 0 256
1 0 0 0 1 0 0 0 0
0 0 0 0 1 0 0 0 10000
1 0 0 0 1 1 1 1 10000
0 1 1 1 0 1 0 1 10000
0 1 1 0 0 1 1 0 0
0 1 1 0 1 1 1 0 10000
1 1 1 1 1 1 0 1 10000
1 0 1 0 1 1 1 0 10000
0 0 1 0 1 1 1 0 10000
0 0 1 0 1 0 0 1 10000
1 0 0 0 0 0 1 0 0
0 1 0 0 0 1 1 0 10000
0 1 0 1 0 1 0 1 0
1 1 0 1 1 1 1 1 10000
1 0 1 1 0 0 0 0 10000
1 1 1 0 1 0 1 1 0
1 0 1 0 0 0 0 1 10000
0 0 1 0 0 1 0 0 0
1 1 1 0 1 1 0 0 10000
0 1 1 1 1 0 1 0 10000
1 1 0 1 0 0 1 0 10000
0 0 1 0 0 0 1 1 10000
0 0 0 0 0 1 0 1 10000
1 0 0 1 0 0 1 0 10000
1 0 1 0 1 1 0 0 0
0 1 0 1 1 1 0 1 10000
0 1 1 1 1 0 0 0 10000
1 0 1 0 1 0 1 1 10000
1 0 1 1 1 0 1 0 10000
1 0 0 1 1 1 1 1 10000
0 1 1 1 1 1 1 1 10000
0 0 1 1 0 1 1 0 0
1 1 0 0 0 0 1 0 10000
0 1 0 0 1 0 1 1 10000
1 0 0 1 1 0 0 0 10000
1 1 1 1 0 1 1 0 10000
0 0 0 0 1 1 0 1 10000
1 0 1 1 1 1 0 1 0
0 1 0 0 1 1 0 0 10000
0 1 1 1 0 0 1 0 10000
1 1 0 0 1 1 1 1 10000
0 0 1 1 1 1 1 0 10000
0 0 0 1 1 0 1 1 10000
1 1 0 0 1 0 0 0 10000
0 1 0 0 0 0 0 1 0
1 1 1 1 0 1 1 1 10000
0 1 0 1 0 0 0 0 10000
0 0 0 1 1 1 0 0 10000
1 0 1 1 0 1 0 1 10000
0 1 1 0 0 0 1 0 10000
0 1 0 1 0 1 1 1 10000
1 0 1 0 0 0 1 0 10000
1 1 1 0 1 0 0 1 10000
0 0 0 1 0 0 0 1 0
1 0 0 0 0 1 1 0 10000
1 0 0 1 0 1 0 1 0
0 0 0 0 0 0 0 0 0
1 1 1 0 0 1 1 1 0
0 1 0 1 1 0 1 0 0
0 1 0 0 1 1 0 1 10000
0 0 0 0 0 1 1 1 10000
0 1 1 0 1 0 0 0 10000
1 1 1 0 0 1 0 0 10000
0 0 1 1 0 0 1 1 0
1 1 0 1 0 1 1 0 10000
1 1 0 0 0 1 0 1 0
0 0 1 1 0 1 0 0 10000
1 1 1 1 1 0 0 0 10000
0 0 0 0 1 0 1 0 10000
1 0 0 1 1 1 0 1 10000
1 1 0 1 1 0 0 0 10000
1 1 1 0 1 1 1 0 0
1 0 1 1 1 0 0 0 10000
0 1 0 0 1 0 0 1 10000
0 1 1 1 0 1 1 1 0
0 0 1 1 1 0 0 1 0
1 0 1 1 1 1 1 1 10000
1 0 1 1 0 1 1 1 0
1 0 0 0 1 0 1 1 10000
1 1 0 0 1 1 0 1 10000
0 1 0 0 0 1 0 0 0
1 0 0 0 1 1 0 0 10000
0 0 0 1 1 0 0 1 10000
1 0 1 1 0 0 1 0 10000
0 1 0 0 0 0 1 1 10000
0 1 1 0 0 1 0 1 0
1 1 1 0 0 0 0 0 10000
1 1 1 1 1 1 1 0 10000
1 1 1 1 1 1 1 1 0
1 1 0 1 1 0 1 1 0
0 0 1 0 1 0 1 0 10000
1 0 0 0 0 0 0 1 0
0 0 0 1 0 1 0 0 0
1 0 0 1 0 0 0 0 10000
1 1 0 1 1 1 0 0 10000
0 0 0 1 0 0 1 1 10000
1 0 0 1 0 1 1 1 10000
0 0 1 0 0 1 1 1 10000
0 1 1 0 1 1 0 1 10000
1 0 1 1 1 0 1 1 0
1 0 1 0 1 1 1 1 10000
1 1 0 1 0 0 0 1 10000
0 0 1 0 0 0 0 0 10000
1 1 0 0 0 0 0 0 10000
0 0 1 1 0 0 0 1 10000
1 0 0 1 1 0 1 0 0
0 1 0 1 1 1 1 0 10000
1 1 0 0 0 1 1 1 10000
0 1 0 0 1 1 1 0 10000
1 0 1 0 1 0 0 0 10000
1 1 1 1 0 0 1 1 10000
0 1 1 1 1 1 0 0 10000
0 0 1 1 1 1 0 0 0
1 1 1 1 0 1 0 0 10000
1 1 0 0 1 0 1 0 0
0 0 1 1 1 0 1 1 10000
0 0 0 1 1 1 1 0 10000
1 0 0 0 1 0 0 1 10000
0 1 1 1 0 0 0 1 10000
0 1 1 0 0 0 0 0 10000
0 0 1 0 1 1 0 1 10000
0 1 1 0 0 1 1 1 10000
1 0 0 0 0 1 0 0 0
0 1 0 1 0 0 1 1 0
0 1 1 1 1 0 1 1 0
1 0 0 0 0 0 1 1 10000
1 0 1 0 0 1 0 1 0
0 1 0 1 0 1 0 0 10000
0 1 1 0 1 0 1 0 0
1 1 1 0 1 0 1 0 10000
1 1 0 1 0 1 0 0 10000
0 0 1 0 0 1 0 1 10000
0 0 0 0 0 0 1 1 10000
0 1 0 1 1 0 0 1 0
1 1 0 1 0 0 1 1 10000
0 0 0 0 0 1 0 0 10000
0 1 1 0 0 0 1 1 0
0 0 0 1 0 1 1 0 10000
1 0 1 0 1 1 0 1 10000
1 0 1 0 0 0 1 1 0
1 1 1 0 0 0 1 1 10000
0 1 1 1 1 0 0 1 10000
1 1 1 1 0 0 0 1 10000
0 0 0 0 1 0 0 1 10000
1 0 0 1 1 1 1 0 10000
1 0 0 0 1 1 1 0 10000
0 1 0 0 1 0 1 0 10000
0 1 1 1 0 1 0 0 10000
1 0 1 1 1 1 0 0 10000
1 1 1 1 1 1 0 0 10000
0 1 1 1 0 0 1 1 10000
0 0 1 0 1 0 0 0 0
1 1 0 0 1 1 1 0 10000
0 1 0 0 0 1 1 1 10000
1 1 0 1 1 0 0 1 10000
1 1 0 1 1 1 1 0 0
0 0 0 1 1 0 1 0 10000
1 0 1 1 0 0 0 1 10000
0 1 0 0 0 0 0 0 10000
0 0 0 0 1 1 1 0 10000
0 1 0 1 0 0 0 1 10000
1 1 1 1 1 0 1 1 10000
1 1 1 0 1 1 0 1 0
1 0 1 0 0 1 1 1 10000
0 0 1 0 0 0 1 0 0
1 0 0 1 0 0 1 1 0
0 1 0 1 1 1 0 0 0
0 0 0 1 0 0 0 0 10000
1 0 0 1 0 1 0 0 10000
0 0 0 0 0 0 0 1 10000
1 0 1 0 1 0 1 0 0
0 1 0 1 1 0 1 1 10000
0 1 1 1 1 1 1 0 0
1 1 1 0 0 1 0 1 10000
1 1 0 0 0 0 1 1 0
0 0 1 1 0 0 1 0 10000
1 0 0 1 1 0 0 1 0
0 0 0 0 1 1 0 0 10000
1 1 0 0 0 1 0 0 10000
0 0 1 0 1 1 1 1 10000
0 0 0 0 1 0 1 1 10000
1 1 1 0 1 1 1 1 10000
1 1 1 1 0 0 0 0 10000
0 0 1 1 1 1 1 1 10000
1 0 1 1 1 0 0 1 10000
1 1 0 0 1 0 0 1 0
0 0 1 1 1 0 0 0 10000
0 0 0 1 1 1 0 1 10000
1 0 0 0 1 0 1 0 10000
1 0 1 1 0 1 0 0 10000
0 1 0 0 0 1 0 1 10000
0 1 0 1 0 1 1 0 0
1 0 1 0 0 0 0 0 10000
1 0 1 1 0 0 1 1 10000
0 1 1 0 0 1 0 0 10000
1 1 1 0 1 0 0 0 10000
1 0 0 0 0 1 1 1 10000
1 1 0 1 1 0 1 0 10000
1 0 0 0 0 0 0 0 10000
0 0 0 0 0 0 1 0 10000
0 0 0 1 0 1 0 1 10000
0 0 0 0 0 1 1 0 10000
1 0 0 1 0 0 0 1 10000
0 1 1 0 1 0 0 1 0
1 0 1 0 1 0 0 1 0
1 0 1 1 0 1 1 0 10000
1 1 0 1 0 1 1 1 0
0 0 1 0 0 1 1 0 10000
0 0 1 1 0 1 0 1 0
1 0 0 1 1 1 0 0 0
1 1 0 1 0 0 0 0 10000
1 1 0 0 0 0 0 1 10000
0 1 0 0 1 0 0 0 0
1 0 0 1 1 0 1 1 10000
1 1 1 1 1 0 0 1 10000
1 0 1 1 1 1 1 0 0
0 1 0 0 1 1 1 1 10000
1 1 1 1 0 0 1 0 10000
1 1 0 0 1 1 0 0 0
0 0 1 1 1 1 0 1 10000
1 1 1 0 0 0 0 1 10000
1 0 0 0 1 1 0 1 10000
0 0 0 1 1 0 0 0 0
1 1 0 0 1 0 1 1 10000
0 1 0 0 0 0 1 0 0
1 1 1 0 0 0 1 0 10000
0 0 0 1 1 1 1 1 10000
0 1 1 1 0 0 0 0 10000
0 0 1 0 1 0 1 1 10000
0 1 1 0 0 0 0 1 10000
1 1 0 1 1 1 0 1 0
0 0 1 0 1 1 0 0 10000
0 0 0 1 0 0 1 0 0
1 0 0 0 0 1 0 1 10000
1 0 0 1 0 1 1 0 0
0 1 0 1 0 0 1 0 10000
0 1 1 0 1 1 0 0 0
1 0 1 0 0 1 0 0 10000
0 0 1 0 0 0 0 1 0
0 1 1 0 1 0 1 1 10000
0 1 1 1 0 1 1 0 10000
0 0 1 1 0 0 0 0 10000
0 1 0 1 1 1 1 1 10000
1 0 1 0 0 1 1 0 0
1 1 0 1 0 1 0 1 10000
1 1 0 0 0 1 1 0 0
0 0 1 1 0 1 1 1 10000
0 0 0 0 1 1 1 1 10000
0 1 0 1 1 0 0 0 10000
1 1 1 1 1 0 1 0 10000
0 1 1 1 1 1 0 1 0
1 1 1 0 0 1 1 0 10000
1 1 1 1 0 1 0 1 10000
0 0 0 1 0 1 1 1 10000
0 0 1 1 1 0 1 0 0
0 1 1 0 1 1 1 1 10000
6 21 22 23 25 6 20 0 64
1 0 0 1 1 1 10000
0 1 0 1 1 0 10000
0 1 1 1 0 1 0
1 1 0 0 1 0 10000
0 0 1 0 1 0 0
0 1 1 0 0 0 10000
1 0 0 0 0 0 10000
0 1 1 1 1 1 10000
1 0 0 1 0 0 0
1 1 1 1 1 0 10000
0 0 1 0 0 1 0
0 1 1 0 1 1 0
0 0 1 1 0 0 0
0 1 1 1 0 0 10000
1 0 1 1 0 1 0
0 0 1 0 1 1 10000
1 1 1 0 1 0 10000
0 1 1 0 0 1 10000
1 0 1 0 0 0 10000
0 0 1 1 1 1 10000
1 1 1 1 0 0 10000
1 0 1 1 1 1 10000
1 0 0 1 1 0 10000
0 0 1 0 0 0 10000
1 1 1 0 0 1 10000
0 1 1 0 1 0 10000
1 0 1 0 1 1 0
0 0 1 1 0 1 10000
0 0 0 1 1 0 10000
1 0 1 1 0 0 10000
1 1 1 0 1 1 10000
1 0 1 0 0 1 10000
1 1 1 1 0 1 10000
0 0 1 1 1 0 10000
0 0 0 1 0 1 10000
0 0 0 0 0 0 0
1 1 1 0 0 0 10000
1 0 1 0 1 0 10000
0 1 0 0 1 0 0
0 0 0 1 1 1 10000
1 1 0 1 1 0 0
0 0 0 0 1 1 10000
1 0 0 1 0 1 10000
0 1 0 0 0 1 0
0 0 0 1 0 0 10000
1 1 0 1 0 1 0
0 1 0 1 0 0 0
0 0 0 0 0 1 10000
1 1 0 0 0 0 10000
0 1 0 0 1 1 10000
1 0 0 0 1 0 0
1 1 0 1 1 1 10000
0 1 0 1 1 1 10000
0 0 0 0 1 0 10000
1 1 0 0 1 1 0
0 1 0 0 0 0 10000
1 0 0 0 0 1 0
1 1 0 1 0 0 10000
0 1 0 1 0 1 10000
0 1 1 1 1 0 0
1 1 0 0 0 1 10000
1 0 1 1 1 0 0
1 1 1 1 1 1 0
1 0 0 0 1 1 10000
4 24 25 13 21 0 16
1 0 1 1 10000
1 1 0 1 10000
1 0 0 0 10000
0 1 1 0 0
1 0 1 0 0
0 0 0 1 10000
0 0 1 1 10000
1 0 0 1 0
0 1 0 0 10000
1 1 1 1 0
0 0 0 0 0
0 0 1 0 10000
0 1 0 1 0
1 1 1 0 10000
0 1 1 1 10000
1 1 0 0 10000
